row=7;
column=7;
Board=[|1,2,6,7,5,3,4|5,3,2,1,4,7,6|4,5,7,6,3,2,1|6,7,3,2,1,4,5|2,4,1,3,6,5,7|7,1,5,4,2,6,3|3,6,4,5,7,1,2|];
horizontal=[|0,0,0,1,1,0|1,1,1,0,0,1|0,0,1,1,1,1|0,1,1,1,0,0|0,1,0,0,1,0|1,0,1,1,0,1|0,1,0,0,1,0|];
vertical=[|0,0,1,1,1,0,0|1,0,0,0,1,1,1|0,0,1,1,1,0,0|1,1,1,0,0,0,0|0,1,0,0,1,0,1|1,0,1,0,0,1,1|];
